
Gurobi 8.1.1 (linux64, Python) logging started Tue Apr  7 01:54:51 2020

Academic license - for non-commercial use only

Gurobi 8.1.1 (linux64, Python) logging started Wed Apr 15 21:49:05 2020

Academic license - for non-commercial use only

Gurobi 8.1.1 (linux64, Python) logging started Wed Apr 15 21:50:04 2020

Academic license - for non-commercial use only

Gurobi 8.1.1 (linux64, Python) logging started Wed Apr 15 21:51:59 2020

Academic license - for non-commercial use only

Gurobi 8.1.1 (linux64, Python) logging started Wed Apr 15 21:52:52 2020

Academic license - for non-commercial use only

Gurobi 8.1.1 (linux64, Python) logging started Wed Apr 15 21:53:49 2020

Academic license - for non-commercial use only

Gurobi 8.1.1 (linux64, Python) logging started Wed Apr 15 21:55:07 2020

Academic license - for non-commercial use only

Gurobi 8.1.1 (linux64, Python) logging started Wed Apr 15 21:55:31 2020

Academic license - for non-commercial use only

Gurobi 8.1.1 (linux64, Python) logging started Wed Apr 15 21:57:57 2020

Academic license - for non-commercial use only

Gurobi 8.1.1 (linux64, Python) logging started Wed Apr 15 21:59:38 2020

Academic license - for non-commercial use only

Gurobi 8.1.1 (linux64, Python) logging started Wed Apr 15 22:00:12 2020

Academic license - for non-commercial use only

Gurobi 8.1.1 (linux64, Python) logging started Wed Apr 15 22:00:31 2020

Academic license - for non-commercial use only

Gurobi 8.1.1 (linux64, Python) logging started Thu Apr 16 11:19:11 2020

Academic license - for non-commercial use only

Gurobi 8.1.1 (linux64, Python) logging started Fri Apr 17 11:37:53 2020

Academic license - for non-commercial use only

Gurobi 8.1.1 (linux64, Python) logging started Fri Apr 17 11:44:04 2020

Academic license - for non-commercial use only

Gurobi 8.1.1 (linux64, Python) logging started Fri Apr 17 11:45:52 2020

Academic license - for non-commercial use only

Gurobi 8.1.1 (linux64, Python) logging started Fri Apr 17 11:45:59 2020

Academic license - for non-commercial use only

Gurobi 8.1.1 (linux64, Python) logging started Fri Apr 17 11:46:19 2020

Academic license - for non-commercial use only

Gurobi 8.1.1 (linux64, Python) logging started Sat Apr 18 05:00:21 2020

Academic license - for non-commercial use only

Gurobi 8.1.1 (linux64, Python) logging started Sat Apr 18 05:01:49 2020

Academic license - for non-commercial use only

Gurobi 8.1.1 (linux64, Python) logging started Sat Apr 18 05:02:20 2020

Academic license - for non-commercial use only

Gurobi 8.1.1 (linux64, Python) logging started Sat Apr 18 05:02:36 2020

Academic license - for non-commercial use only

Gurobi 8.1.1 (linux64, Python) logging started Sat Apr 18 05:02:59 2020

Academic license - for non-commercial use only

Gurobi 8.1.1 (linux64, Python) logging started Sat Apr 18 05:03:43 2020

Academic license - for non-commercial use only

Gurobi 8.1.1 (linux64, Python) logging started Sat Apr 18 05:15:25 2020

Academic license - for non-commercial use only

Gurobi 8.1.1 (linux64, Python) logging started Sat Apr 18 05:28:34 2020

Academic license - for non-commercial use only

Gurobi 8.1.1 (linux64, Python) logging started Sat Apr 18 05:30:00 2020

Academic license - for non-commercial use only

Gurobi 8.1.1 (linux64, Python) logging started Sat Apr 18 05:30:48 2020

Academic license - for non-commercial use only

Gurobi 8.1.1 (linux64, Python) logging started Sat Apr 18 05:31:31 2020

Academic license - for non-commercial use only

Gurobi 8.1.1 (linux64, Python) logging started Sat Apr 18 05:32:48 2020

Academic license - for non-commercial use only

Gurobi 8.1.1 (linux64, Python) logging started Sat Apr 18 05:38:34 2020

Academic license - for non-commercial use only

Gurobi 8.1.1 (linux64, Python) logging started Sat Apr 18 05:43:28 2020

Academic license - for non-commercial use only

Gurobi 8.1.1 (linux64, Python) logging started Sat Apr 18 06:03:10 2020

Academic license - for non-commercial use only

Gurobi 8.1.1 (linux64, Python) logging started Sat Apr 18 06:05:43 2020

Academic license - for non-commercial use only

Gurobi 8.1.1 (linux64, Python) logging started Sat Apr 18 06:07:42 2020

Academic license - for non-commercial use only

Gurobi 8.1.1 (linux64, Python) logging started Sat Apr 18 06:27:06 2020

Academic license - for non-commercial use only

Gurobi 8.1.1 (linux64, Python) logging started Sat Apr 18 06:27:26 2020

Academic license - for non-commercial use only

Gurobi 8.1.1 (linux64, Python) logging started Sat Apr 18 06:28:00 2020

Academic license - for non-commercial use only

Gurobi 8.1.1 (linux64, Python) logging started Sat Apr 18 10:04:13 2020

Academic license - for non-commercial use only

Gurobi 8.1.1 (linux64, Python) logging started Sat Apr 18 10:06:19 2020

Academic license - for non-commercial use only

Gurobi 8.1.1 (linux64, Python) logging started Sat Apr 18 10:07:23 2020

Academic license - for non-commercial use only

Gurobi 8.1.1 (linux64, Python) logging started Sat Apr 18 10:08:08 2020

Academic license - for non-commercial use only

Gurobi 8.1.1 (linux64, Python) logging started Sat Apr 18 10:11:17 2020

Academic license - for non-commercial use only

Gurobi 8.1.1 (linux64, Python) logging started Sat Apr 18 10:12:32 2020

Academic license - for non-commercial use only

Gurobi 8.1.1 (linux64, Python) logging started Sat Apr 18 20:13:48 2020

Academic license - for non-commercial use only

Gurobi 8.1.1 (linux64, Python) logging started Sat Apr 18 22:44:22 2020

Academic license - for non-commercial use only

Gurobi 8.1.1 (linux64, Python) logging started Sat Apr 18 22:44:44 2020

Academic license - for non-commercial use only

Gurobi 8.1.1 (linux64, Python) logging started Sat Apr 18 23:05:54 2020

Academic license - for non-commercial use only

Gurobi 8.1.1 (linux64, Python) logging started Sat Apr 18 23:12:14 2020

Academic license - for non-commercial use only

Gurobi 8.1.1 (linux64, Python) logging started Sat Apr 18 23:17:24 2020

Academic license - for non-commercial use only

Gurobi 8.1.1 (linux64, Python) logging started Sat Apr 18 23:37:58 2020

Academic license - for non-commercial use only

Gurobi 8.1.1 (linux64, Python) logging started Sat Apr 18 23:38:27 2020

Academic license - for non-commercial use only

Gurobi 8.1.1 (linux64, Python) logging started Sat Apr 18 23:40:44 2020

Academic license - for non-commercial use only

Gurobi 8.1.1 (linux64, Python) logging started Sat Apr 18 23:41:14 2020

Academic license - for non-commercial use only

Gurobi 8.1.1 (linux64, Python) logging started Sat Apr 18 23:53:11 2020

Academic license - for non-commercial use only

Gurobi 8.1.1 (linux64, Python) logging started Sat Apr 18 23:55:01 2020

Academic license - for non-commercial use only

Gurobi 8.1.1 (linux64, Python) logging started Sat Apr 18 23:55:39 2020

Academic license - for non-commercial use only

Gurobi 8.1.1 (linux64, Python) logging started Sat Apr 18 23:56:04 2020

Academic license - for non-commercial use only

Gurobi 8.1.1 (linux64, Python) logging started Sat Apr 18 23:57:05 2020

Academic license - for non-commercial use only

Gurobi 8.1.1 (linux64, Python) logging started Sat Apr 18 23:57:44 2020

Academic license - for non-commercial use only

Gurobi 8.1.1 (linux64, Python) logging started Sun Apr 19 00:03:48 2020

Academic license - for non-commercial use only

Gurobi 8.1.1 (linux64, Python) logging started Sun Apr 19 00:04:30 2020

Academic license - for non-commercial use only

Gurobi 8.1.1 (linux64, Python) logging started Sun Apr 19 00:07:48 2020

Academic license - for non-commercial use only

Gurobi 8.1.1 (linux64, Python) logging started Sun Apr 19 00:10:31 2020

Academic license - for non-commercial use only

Gurobi 8.1.1 (linux64, Python) logging started Sun Apr 19 13:47:10 2020

Academic license - for non-commercial use only

Gurobi 8.1.1 (linux64, Python) logging started Sun Apr 19 20:56:03 2020

Academic license - for non-commercial use only

Gurobi 8.1.1 (linux64, Python) logging started Sun Apr 19 20:58:53 2020

Academic license - for non-commercial use only

Gurobi 8.1.1 (linux64, Python) logging started Sun Apr 19 21:01:00 2020

Academic license - for non-commercial use only

Gurobi 8.1.1 (linux64, Python) logging started Sun Apr 19 21:13:47 2020

Academic license - for non-commercial use only

Gurobi 8.1.1 (linux64, Python) logging started Sun Apr 19 21:18:33 2020

Academic license - for non-commercial use only

Gurobi 8.1.1 (linux64, Python) logging started Sun Apr 19 21:35:02 2020

Academic license - for non-commercial use only

Gurobi 8.1.1 (linux64, Python) logging started Sun Apr 19 21:36:32 2020

Academic license - for non-commercial use only

Gurobi 8.1.1 (linux64, Python) logging started Sun Apr 19 21:38:21 2020

Academic license - for non-commercial use only

Gurobi 8.1.1 (linux64, Python) logging started Sun Apr 19 21:39:55 2020

Academic license - for non-commercial use only

Gurobi 8.1.1 (linux64, Python) logging started Sun Apr 19 21:40:39 2020

Academic license - for non-commercial use only

Gurobi 8.1.1 (linux64, Python) logging started Sun Apr 19 21:40:47 2020

Academic license - for non-commercial use only

Gurobi 8.1.1 (linux64, Python) logging started Sun Apr 19 21:41:20 2020

Academic license - for non-commercial use only

Gurobi 8.1.1 (linux64, Python) logging started Sun Apr 19 21:41:33 2020

Academic license - for non-commercial use only

Gurobi 8.1.1 (linux64, Python) logging started Sun Apr 19 21:41:40 2020

Academic license - for non-commercial use only

Gurobi 8.1.1 (linux64, Python) logging started Sun Apr 19 21:41:49 2020

Academic license - for non-commercial use only

Gurobi 8.1.1 (linux64, Python) logging started Sun Apr 19 21:42:26 2020

Academic license - for non-commercial use only

Gurobi 8.1.1 (linux64, Python) logging started Sun Apr 19 21:43:27 2020

Academic license - for non-commercial use only

Gurobi 8.1.1 (linux64, Python) logging started Sun Apr 19 21:44:06 2020

Academic license - for non-commercial use only

Gurobi 8.1.1 (linux64, Python) logging started Sun Apr 19 21:46:45 2020

Academic license - for non-commercial use only

Gurobi 8.1.1 (linux64, Python) logging started Sun Apr 19 21:49:43 2020

Academic license - for non-commercial use only

Gurobi 8.1.1 (linux64, Python) logging started Fri May 15 21:45:46 2020

Academic license - for non-commercial use only

Gurobi 8.1.1 (linux64, Python) logging started Fri May 15 21:46:24 2020

Academic license - for non-commercial use only

Gurobi 8.1.1 (linux64, Python) logging started Sun May 17 13:36:45 2020

Academic license - for non-commercial use only

Gurobi 8.1.1 (linux64, Python) logging started Sun May 17 13:39:28 2020

Academic license - for non-commercial use only

Gurobi 8.1.1 (linux64, Python) logging started Sun May 17 13:39:58 2020

Academic license - for non-commercial use only

Gurobi 8.1.1 (linux64, Python) logging started Sun May 17 13:49:21 2020

Academic license - for non-commercial use only

Gurobi 8.1.1 (linux64, Python) logging started Sun May 17 16:45:36 2020

Academic license - for non-commercial use only

Gurobi 8.1.1 (linux64, Python) logging started Sun May 17 16:45:48 2020

Academic license - for non-commercial use only

Gurobi 8.1.1 (linux64, Python) logging started Sun May 17 16:48:21 2020

Academic license - for non-commercial use only

Gurobi 8.1.1 (linux64, Python) logging started Sun May 17 16:50:19 2020

Academic license - for non-commercial use only

Gurobi 8.1.1 (linux64, Python) logging started Sun May 17 16:50:34 2020

Academic license - for non-commercial use only

Gurobi 8.1.1 (linux64, Python) logging started Sun May 17 16:50:43 2020

Academic license - for non-commercial use only

Gurobi 8.1.1 (linux64, Python) logging started Sun May 17 16:50:45 2020

Academic license - for non-commercial use only

Gurobi 8.1.1 (linux64, Python) logging started Sun May 17 16:52:02 2020

Academic license - for non-commercial use only

Gurobi 8.1.1 (linux64, Python) logging started Sun May 17 16:52:10 2020

Academic license - for non-commercial use only

Gurobi 8.1.1 (linux64, Python) logging started Sun May 17 16:52:13 2020

Academic license - for non-commercial use only

Gurobi 8.1.1 (linux64, Python) logging started Sun May 17 16:52:15 2020

Academic license - for non-commercial use only

Gurobi 8.1.1 (linux64, Python) logging started Sun May 17 16:52:23 2020

Academic license - for non-commercial use only

Gurobi 8.1.1 (linux64, Python) logging started Sun May 17 16:52:36 2020

Academic license - for non-commercial use only

Gurobi 8.1.1 (linux64, Python) logging started Sun May 17 16:55:52 2020

Academic license - for non-commercial use only

Gurobi 8.1.1 (linux64, Python) logging started Sun May 17 17:42:24 2020

Academic license - for non-commercial use only

Gurobi 8.1.1 (linux64, Python) logging started Sun May 17 17:43:01 2020

Academic license - for non-commercial use only

Gurobi 8.1.1 (linux64, Python) logging started Sun May 17 18:13:05 2020

Academic license - for non-commercial use only

Gurobi 8.1.1 (linux64, Python) logging started Sun May 17 18:14:47 2020

Academic license - for non-commercial use only

Gurobi 8.1.1 (linux64, Python) logging started Sun May 17 18:23:42 2020

Academic license - for non-commercial use only

Gurobi 8.1.1 (linux64, Python) logging started Sun May 17 20:23:13 2020

Academic license - for non-commercial use only

Gurobi 8.1.1 (linux64, Python) logging started Mon May 18 17:08:55 2020

Academic license - for non-commercial use only

Gurobi 8.1.1 (linux64, Python) logging started Mon May 18 17:10:01 2020

Academic license - for non-commercial use only

Gurobi 8.1.1 (linux64, Python) logging started Mon May 18 17:11:27 2020

Academic license - for non-commercial use only

Gurobi 8.1.1 (linux64, Python) logging started Mon May 18 17:13:48 2020

Academic license - for non-commercial use only

Gurobi 8.1.1 (linux64, Python) logging started Mon May 18 17:14:55 2020

Academic license - for non-commercial use only

Gurobi 8.1.1 (linux64, Python) logging started Mon May 18 17:15:47 2020

Academic license - for non-commercial use only

Gurobi 8.1.1 (linux64, Python) logging started Mon May 18 17:21:22 2020

Academic license - for non-commercial use only

Gurobi 8.1.1 (linux64, Python) logging started Mon May 18 17:30:09 2020

Academic license - for non-commercial use only

Gurobi 8.1.1 (linux64, Python) logging started Mon May 18 18:03:02 2020

Academic license - for non-commercial use only

Gurobi 8.1.1 (linux64, Python) logging started Wed Jun 24 18:57:23 2020

Academic license - for non-commercial use only

Gurobi 8.1.1 (linux64, Python) logging started Wed Jun 24 18:59:49 2020

Academic license - for non-commercial use only

Gurobi 8.1.1 (linux64, Python) logging started Wed Jun 24 19:00:27 2020

Academic license - for non-commercial use only

Gurobi 8.1.1 (linux64, Python) logging started Wed Jun 24 19:01:00 2020

Academic license - for non-commercial use only

Gurobi 8.1.1 (linux64, Python) logging started Wed Jun 24 19:01:29 2020

Academic license - for non-commercial use only

Gurobi 8.1.1 (linux64, Python) logging started Wed Jun 24 19:10:33 2020

Academic license - for non-commercial use only

Gurobi 8.1.1 (linux64, Python) logging started Wed Jun 24 19:12:13 2020

Academic license - for non-commercial use only

Gurobi 8.1.1 (linux64, Python) logging started Wed Jun 24 19:17:57 2020

Academic license - for non-commercial use only

Gurobi 8.1.1 (linux64, Python) logging started Wed Jun 24 19:19:36 2020

Academic license - for non-commercial use only

Gurobi 8.1.1 (linux64, Python) logging started Wed Jun 24 19:19:53 2020

Academic license - for non-commercial use only

Gurobi 8.1.1 (linux64, Python) logging started Wed Jun 24 19:21:07 2020

Academic license - for non-commercial use only

Gurobi 8.1.1 (linux64, Python) logging started Wed Jun 24 19:21:24 2020

Academic license - for non-commercial use only

Gurobi 8.1.1 (linux64, Python) logging started Wed Jun 24 19:21:39 2020

Academic license - for non-commercial use only

Gurobi 8.1.1 (linux64, Python) logging started Wed Jun 24 19:22:42 2020

Academic license - for non-commercial use only

Gurobi 8.1.1 (linux64, Python) logging started Wed Jun 24 19:23:01 2020

Academic license - for non-commercial use only

Gurobi 8.1.1 (linux64, Python) logging started Wed Jun 24 19:24:06 2020

Academic license - for non-commercial use only

Gurobi 8.1.1 (linux64, Python) logging started Wed Jun 24 19:24:30 2020

Academic license - for non-commercial use only

Gurobi 8.1.1 (linux64, Python) logging started Wed Jun 24 19:25:01 2020

Academic license - for non-commercial use only

Gurobi 8.1.1 (linux64, Python) logging started Wed Jun 24 19:27:04 2020

Academic license - for non-commercial use only

Gurobi 8.1.1 (linux64, Python) logging started Wed Jun 24 19:30:21 2020

Academic license - for non-commercial use only

Gurobi 8.1.1 (linux64, Python) logging started Wed Jun 24 19:30:46 2020

Academic license - for non-commercial use only

Gurobi 8.1.1 (linux64, Python) logging started Wed Jun 24 20:27:11 2020

Academic license - for non-commercial use only

Gurobi 8.1.1 (linux64, Python) logging started Wed Jun 24 20:30:57 2020

Academic license - for non-commercial use only

Gurobi 8.1.1 (linux64, Python) logging started Wed Jun 24 20:36:52 2020

Academic license - for non-commercial use only

Gurobi 8.1.1 (linux64, Python) logging started Wed Jun 24 20:39:27 2020

Academic license - for non-commercial use only

Gurobi 8.1.1 (linux64, Python) logging started Wed Jun 24 20:44:02 2020

Academic license - for non-commercial use only

Gurobi 8.1.1 (linux64, Python) logging started Wed Jun 24 20:53:58 2020

Academic license - for non-commercial use only
